60
1 0 73
2 0 94
2 1 2
3 0 79
3 1 65
3 2 102
4 0 62
4 1 62
4 2 118
4 3 9
5 0 11
5 1 72
5 2 64
5 3 109
5 4 88
6 0 30
6 1 72
6 2 26
6 3 118
6 4 111
6 5 82
7 0 108
7 1 46
7 2 56
7 3 3
7 4 53
7 5 75
7 6 28
8 0 78
8 1 47
8 2 4
8 3 52
8 4 16
8 5 98
8 6 61
8 7 56
9 0 75
9 1 3
9 2 99
9 3 38
9 4 110
9 5 43
9 6 119
9 7 11
9 8 79
10 0 86
10 1 16
10 2 44
10 3 113
10 4 8
10 5 114
10 6 111
10 7 104
10 8 24
10 9 98
11 0 116
11 1 108
11 2 53
11 3 16
11 4 1
11 5 1
11 6 14
11 7 43
11 8 114
11 9 108
11 10 108
12 0 104
12 1 8
12 2 118
12 3 50
12 4 78
12 5 101
12 6 91
12 7 85
12 8 51
12 9 6
12 10 87
12 11 53
13 0 83
13 1 40
13 2 14
13 3 107
13 4 93
13 5 31
13 6 118
13 7 26
13 8 110
13 9 79
13 10 62
13 11 59
13 12 2
14 0 68
14 1 58
14 2 51
14 3 54
14 4 34
14 5 33
14 6 107
14 7 17
14 8 22
14 9 119
14 10 74
14 11 108
14 12 50
14 13 48
15 0 69
15 1 61
15 2 66
15 3 98
15 4 14
15 5 27
15 6 102
15 7 26
15 8 92
15 9 76
15 10 91
15 11 14
15 12 18
15 13 6
15 14 80
16 0 9
16 1 79
16 2 91
16 3 18
16 4 85
16 5 78
16 6 6
16 7 27
16 8 94
16 9 55
16 10 75
16 11 42
16 12 79
16 13 35
16 14 101
16 15 5
17 0 11
17 1 120
17 2 9
17 3 66
17 4 42
17 5 26
17 6 105
17 7 111
17 8 110
17 9 32
17 10 110
17 11 28
17 12 53
17 13 120
17 14 102
17 15 1
17 16 74
18 0 42
18 1 63
18 2 5
18 3 19
18 4 34
18 5 24
18 6 12
18 7 120
18 8 50
18 9 90
18 10 31
18 11 64
18 12 74
18 13 1
18 14 103
18 15 47
18 16 12
18 17 71
19 0 37
19 1 6
19 2 8
19 3 5
19 4 32
19 5 52
19 6 101
19 7 9
19 8 103
19 9 14
19 10 114
19 11 25
19 12 1
19 13 112
19 14 87
19 15 4
19 16 5
19 17 120
19 18 38
20 0 13
20 1 15
20 2 57
20 3 26
20 4 2
20 5 24
20 6 77
20 7 78
20 8 10
20 9 60
20 10 5
20 11 52
20 12 4
20 13 91
20 14 96
20 15 28
20 16 30
20 17 87
20 18 44
20 19 32
21 0 74
21 1 78
21 2 27
21 3 95
21 4 12
21 5 88
21 6 54
21 7 10
21 8 63
21 9 101
21 10 9
21 11 89
21 12 13
21 13 101
21 14 76
21 15 35
21 16 103
21 17 56
21 18 41
21 19 90
21 20 101
22 0 64
22 1 105
22 2 47
22 3 101
22 4 112
22 5 71
22 6 113
22 7 11
22 8 77
22 9 81
22 10 120
22 11 110
22 12 92
22 13 80
22 14 37
22 15 67
22 16 43
22 17 17
22 18 36
22 19 71
22 20 52
22 21 89
23 0 104
23 1 63
23 2 64
23 3 79
23 4 59
23 5 73
23 6 88
23 7 34
23 8 119
23 9 3
23 10 103
23 11 89
23 12 79
23 13 93
23 14 45
23 15 46
23 16 55
23 17 12
23 18 39
23 19 64
23 20 73
23 21 23
23 22 3
24 0 6
24 1 85
24 2 64
24 3 71
24 4 55
24 5 21
24 6 18
24 7 59
24 8 97
24 9 95
24 10 69
24 11 72
24 12 53
24 13 56
24 14 42
24 15 61
24 16 33
24 17 68
24 18 32
24 19 11
24 20 48
24 21 67
24 22 103
24 23 64
25 0 7
25 1 67
25 2 82
25 3 46
25 4 31
25 5 25
25 6 48
25 7 26
25 8 73
25 9 3
25 10 97
25 11 9
25 12 22
25 13 111
25 14 37
25 15 102
25 16 52
25 17 94
25 18 39
25 19 119
25 20 55
25 21 12
25 22 102
25 23 61
25 24 25
26 0 23
26 1 119
26 2 120
26 3 51
26 4 60
26 5 32
26 6 22
26 7 35
26 8 101
26 9 1
26 10 23
26 11 24
26 12 96
26 13 12
26 14 67
26 15 15
26 16 59
26 17 111
26 18 97
26 19 49
26 20 61
26 21 32
26 22 98
26 23 5
26 24 80
26 25 64
27 0 71
27 1 80
27 2 108
27 3 55
27 4 7
27 5 116
27 6 59
27 7 39
27 8 110
27 9 14
27 10 44
27 11 27
27 12 98
27 13 56
27 14 28
27 15 111
27 16 32
27 17 80
27 18 89
27 19 48
27 20 14
27 21 96
27 22 1
27 23 9
27 24 63
27 25 46
27 26 10
28 0 33
28 1 79
28 2 27
28 3 33
28 4 73
28 5 78
28 6 55
28 7 50
28 8 4
28 9 63
28 10 37
28 11 54
28 12 120
28 13 12
28 14 48
28 15 112
28 16 113
28 17 5
28 18 73
28 19 36
28 20 103
28 21 81
28 22 100
28 23 14
28 24 104
28 25 19
28 26 23
28 27 57
29 0 119
29 1 15
29 2 52
29 3 46
29 4 58
29 5 115
29 6 75
29 7 96
29 8 57
29 9 19
29 10 60
29 11 75
29 12 97
29 13 84
29 14 98
29 15 94
29 16 30
29 17 21
29 18 90
29 19 30
29 20 61
29 21 2
29 22 29
29 23 89
29 24 87
29 25 53
29 26 75
29 27 18
29 28 49
30 0 72
30 1 14
30 2 31
30 3 107
30 4 10
30 5 106
30 6 17
30 7 104
30 8 5
30 9 108
30 10 32
30 11 61
30 12 35
30 13 85
30 14 42
30 15 41
30 16 28
30 17 90
30 18 40
30 19 88
30 20 64
30 21 8
30 22 11
30 23 92
30 24 102
30 25 40
30 26 87
30 27 99
30 28 119
30 29 77
31 0 76
31 1 21
31 2 48
31 3 63
31 4 69
31 5 43
31 6 97
31 7 115
31 8 60
31 9 16
31 10 45
31 11 67
31 12 104
31 13 52
31 14 93
31 15 11
31 16 82
31 17 45
31 18 119
31 19 120
31 20 64
31 21 52
31 22 91
31 23 73
31 24 37
31 25 32
31 26 117
31 27 22
31 28 41
31 29 94
31 30 57
32 0 7
32 1 34
32 2 61
32 3 116
32 4 54
32 5 106
32 6 30
32 7 14
32 8 81
32 9 47
32 10 78
32 11 119
32 12 109
32 13 50
32 14 27
32 15 41
32 16 86
32 17 42
32 18 95
32 19 62
32 20 116
32 21 90
32 22 67
32 23 118
32 24 107
32 25 33
32 26 18
32 27 71
32 28 40
32 29 117
32 30 49
32 31 30
33 0 63
33 1 25
33 2 97
33 3 67
33 4 107
33 5 39
33 6 72
33 7 72
33 8 93
33 9 118
33 10 37
33 11 103
33 12 116
33 13 89
33 14 1
33 15 7
33 16 66
33 17 19
33 18 59
33 19 49
33 20 56
33 21 87
33 22 54
33 23 41
33 24 71
33 25 34
33 26 6
33 27 9
33 28 59
33 29 91
33 30 75
33 31 31
33 32 10
34 0 31
34 1 52
34 2 86
34 3 87
34 4 11
34 5 65
34 6 3
34 7 70
34 8 6
34 9 56
34 10 39
34 11 40
34 12 12
34 13 119
34 14 101
34 15 53
34 16 46
34 17 36
34 18 86
34 19 79
34 20 115
34 21 61
34 22 43
34 23 53
34 24 114
34 25 2
34 26 40
34 27 48
34 28 109
34 29 46
34 30 53
34 31 10
34 32 58
34 33 77
35 0 75
35 1 73
35 2 102
35 3 24
35 4 91
35 5 118
35 6 45
35 7 100
35 8 60
35 9 16
35 10 67
35 11 41
35 12 89
35 13 114
35 14 21
35 15 105
35 16 45
35 17 111
35 18 17
35 19 7
35 20 41
35 21 19
35 22 73
35 23 48
35 24 33
35 25 93
35 26 23
35 27 67
35 28 14
35 29 6
35 30 60
35 31 59
35 32 66
35 33 106
35 34 19
36 0 73
36 1 21
36 2 31
36 3 25
36 4 46
36 5 81
36 6 108
36 7 51
36 8 13
36 9 56
36 10 36
36 11 117
36 12 74
36 13 71
36 14 96
36 15 66
36 16 36
36 17 98
36 18 42
36 19 88
36 20 94
36 21 21
36 22 23
36 23 38
36 24 102
36 25 51
36 26 76
36 27 108
36 28 85
36 29 30
36 30 58
36 31 104
36 32 70
36 33 7
36 34 4
36 35 73
37 0 32
37 1 86
37 2 58
37 3 77
37 4 16
37 5 83
37 6 36
37 7 107
37 8 69
37 9 32
37 10 103
37 11 54
37 12 22
37 13 111
37 14 46
37 15 41
37 16 102
37 17 12
37 18 2
37 19 39
37 20 84
37 21 86
37 22 59
37 23 83
37 24 76
37 25 42
37 26 104
37 27 61
37 28 82
37 29 118
37 30 22
37 31 108
37 32 85
37 33 59
37 34 118
37 35 24
37 36 111
38 0 64
38 1 22
38 2 20
38 3 44
38 4 44
38 5 77
38 6 60
38 7 39
38 8 96
38 9 42
38 10 48
38 11 41
38 12 37
38 13 35
38 14 120
38 15 23
38 16 114
38 17 25
38 18 80
38 19 13
38 20 95
38 21 106
38 22 85
38 23 9
38 24 91
38 25 85
38 26 5
38 27 110
38 28 29
38 29 73
38 30 67
38 31 75
38 32 109
38 33 71
38 34 61
38 35 5
38 36 46
38 37 64
39 0 18
39 1 112
39 2 2
39 3 109
39 4 28
39 5 109
39 6 77
39 7 75
39 8 36
39 9 116
39 10 14
39 11 21
39 12 99
39 13 49
39 14 23
39 15 81
39 16 75
39 17 56
39 18 99
39 19 81
39 20 7
39 21 118
39 22 4
39 23 73
39 24 119
39 25 101
39 26 116
39 27 50
39 28 67
39 29 5
39 30 84
39 31 83
39 32 11
39 33 79
39 34 117
39 35 29
39 36 110
39 37 9
39 38 117
40 0 18
40 1 86
40 2 13
40 3 77
40 4 64
40 5 94
40 6 12
40 7 36
40 8 78
40 9 36
40 10 116
40 11 77
40 12 13
40 13 52
40 14 97
40 15 16
40 16 24
40 17 10
40 18 74
40 19 60
40 20 92
40 21 30
40 22 8
40 23 120
40 24 115
40 25 72
40 26 70
40 27 37
40 28 114
40 29 82
40 30 11
40 31 69
40 32 45
40 33 88
40 34 9
40 35 92
40 36 6
40 37 21
40 38 119
40 39 42
41 0 36
41 1 12
41 2 6
41 3 13
41 4 106
41 5 64
41 6 119
41 7 48
41 8 53
41 9 8
41 10 36
41 11 41
41 12 97
41 13 32
41 14 120
41 15 82
41 16 89
41 17 119
41 18 6
41 19 34
41 20 111
41 21 43
41 22 104
41 23 62
41 24 16
41 25 24
41 26 71
41 27 120
41 28 6
41 29 6
41 30 2
41 31 62
41 32 21
41 33 17
41 34 53
41 35 118
41 36 81
41 37 117
41 38 88
41 39 89
41 40 18
42 0 29
42 1 56
42 2 90
42 3 86
42 4 46
42 5 97
42 6 35
42 7 113
42 8 119
42 9 73
42 10 28
42 11 37
42 12 89
42 13 106
42 14 13
42 15 54
42 16 88
42 17 66
42 18 58
42 19 35
42 20 35
42 21 20
42 22 35
42 23 91
42 24 77
42 25 119
42 26 30
42 27 97
42 28 9
42 29 92
42 30 57
42 31 95
42 32 49
42 33 97
42 34 102
42 35 71
42 36 114
42 37 54
42 38 104
42 39 102
42 40 23
42 41 109
43 0 110
43 1 44
43 2 2
43 3 10
43 4 36
43 5 59
43 6 19
43 7 113
43 8 50
43 9 108
43 10 3
43 11 41
43 12 106
43 13 45
43 14 44
43 15 75
43 16 68
43 17 23
43 18 28
43 19 26
43 20 91
43 21 53
43 22 31
43 23 9
43 24 3
43 25 37
43 26 26
43 27 95
43 28 48
43 29 6
43 30 46
43 31 75
43 32 117
43 33 47
43 34 17
43 35 94
43 36 6
43 37 52
43 38 104
43 39 86
43 40 55
43 41 33
43 42 3
44 0 39
44 1 79
44 2 11
44 3 3
44 4 28
44 5 77
44 6 30
44 7 42
44 8 67
44 9 118
44 10 75
44 11 90
44 12 111
44 13 38
44 14 59
44 15 97
44 16 59
44 17 28
44 18 41
44 19 4
44 20 41
44 21 37
44 22 76
44 23 36
44 24 70
44 25 94
44 26 45
44 27 32
44 28 90
44 29 18
44 30 115
44 31 10
44 32 77
44 33 62
44 34 79
44 35 83
44 36 68
44 37 81
44 38 92
44 39 27
44 40 61
44 41 23
44 42 30
44 43 70
45 0 107
45 1 102
45 2 42
45 3 10
45 4 110
45 5 51
45 6 74
45 7 80
45 8 56
45 9 58
45 10 20
45 11 32
45 12 31
45 13 91
45 14 34
45 15 20
45 16 83
45 17 35
45 18 71
45 19 59
45 20 58
45 21 37
45 22 44
45 23 19
45 24 20
45 25 87
45 26 103
45 27 114
45 28 106
45 29 55
45 30 64
45 31 64
45 32 30
45 33 25
45 34 80
45 35 68
45 36 7
45 37 24
45 38 97
45 39 28
45 40 16
45 41 19
45 42 102
45 43 98
45 44 83
46 0 59
46 1 101
46 2 23
46 3 110
46 4 43
46 5 93
46 6 45
46 7 74
46 8 29
46 9 119
46 10 51
46 11 30
46 12 14
46 13 101
46 14 42
46 15 72
46 16 42
46 17 104
46 18 108
46 19 112
46 20 104
46 21 75
46 22 43
46 23 51
46 24 44
46 25 91
46 26 70
46 27 14
46 28 56
46 29 22
46 30 18
46 31 92
46 32 20
46 33 46
46 34 19
46 35 49
46 36 110
46 37 3
46 38 15
46 39 33
46 40 34
46 41 80
46 42 3
46 43 74
46 44 108
46 45 16
47 0 42
47 1 58
47 2 32
47 3 92
47 4 110
47 5 54
47 6 72
47 7 90
47 8 61
47 9 116
47 10 79
47 11 15
47 12 99
47 13 87
47 14 52
47 15 30
47 16 35
47 17 32
47 18 2
47 19 98
47 20 66
47 21 78
47 22 6
47 23 75
47 24 99
47 25 9
47 26 68
47 27 99
47 28 58
47 29 68
47 30 22
47 31 22
47 32 51
47 33 29
47 34 106
47 35 89
47 36 14
47 37 91
47 38 103
47 39 101
47 40 54
47 41 114
47 42 24
47 43 40
47 44 89
47 45 88
47 46 45
48 0 71
48 1 60
48 2 93
48 3 92
48 4 59
48 5 100
48 6 70
48 7 84
48 8 70
48 9 74
48 10 112
48 11 97
48 12 10
48 13 85
48 14 98
48 15 72
48 16 45
48 17 116
48 18 40
48 19 67
48 20 27
48 21 95
48 22 26
48 23 25
48 24 100
48 25 50
48 26 107
48 27 108
48 28 52
48 29 25
48 30 30
48 31 39
48 32 17
48 33 78
48 34 73
48 35 1
48 36 17
48 37 114
48 38 55
48 39 16
48 40 59
48 41 18
48 42 113
48 43 83
48 44 18
48 45 46
48 46 44
48 47 81
49 0 110
49 1 83
49 2 108
49 3 89
49 4 56
49 5 43
49 6 56
49 7 87
49 8 86
49 9 98
49 10 55
49 11 100
49 12 2
49 13 69
49 14 80
49 15 51
49 16 13
49 17 82
49 18 86
49 19 75
49 20 92
49 21 79
49 22 91
49 23 41
49 24 57
49 25 115
49 26 38
49 27 37
49 28 89
49 29 48
49 30 53
49 31 31
49 32 89
49 33 12
49 34 79
49 35 41
49 36 53
49 37 94
49 38 40
49 39 46
49 40 54
49 41 78
49 42 45
49 43 82
49 44 16
49 45 14
49 46 63
49 47 38
49 48 109
50 0 116
50 1 66
50 2 23
50 3 66
50 4 116
50 5 16
50 6 48
50 7 8
50 8 104
50 9 30
50 10 63
50 11 58
50 12 28
50 13 46
50 14 109
50 15 56
50 16 95
50 17 96
50 18 23
50 19 93
50 20 117
50 21 88
50 22 60
50 23 105
50 24 112
50 25 37
50 26 14
50 27 25
50 28 46
50 29 53
50 30 69
50 31 5
50 32 88
50 33 3
50 34 45
50 35 91
50 36 67
50 37 31
50 38 113
50 39 14
50 40 50
50 41 106
50 42 49
50 43 95
50 44 46
50 45 69
50 46 37
50 47 26
50 48 117
50 49 110
51 0 49
51 1 73
51 2 25
51 3 71
51 4 12
51 5 72
51 6 10
51 7 98
51 8 25
51 9 110
51 10 78
51 11 2
51 12 13
51 13 2
51 14 56
51 15 46
51 16 43
51 17 80
51 18 18
51 19 95
51 20 62
51 21 88
51 22 31
51 23 19
51 24 77
51 25 101
51 26 90
51 27 39
51 28 83
51 29 73
51 30 94
51 31 107
51 32 99
51 33 66
51 34 64
51 35 91
51 36 42
51 37 111
51 38 39
51 39 25
51 40 102
51 41 13
51 42 36
51 43 89
51 44 66
51 45 33
51 46 39
51 47 14
51 48 26
51 49 52
51 50 114
52 0 27
52 1 119
52 2 16
52 3 67
52 4 88
52 5 110
52 6 48
52 7 6
52 8 91
52 9 24
52 10 73
52 11 88
52 12 97
52 13 46
52 14 66
52 15 18
52 16 105
52 17 115
52 18 89
52 19 14
52 20 58
52 21 14
52 22 86
52 23 30
52 24 108
52 25 81
52 26 4
52 27 65
52 28 107
52 29 44
52 30 3
52 31 3
52 32 100
52 33 1
52 34 73
52 35 48
52 36 111
52 37 40
52 38 94
52 39 28
52 40 94
52 41 40
52 42 55
52 43 14
52 44 104
52 45 66
52 46 99
52 47 101
52 48 38
52 49 69
52 50 52
52 51 65
53 0 28
53 1 90
53 2 80
53 3 39
53 4 55
53 5 99
53 6 33
53 7 99
53 8 49
53 9 111
53 10 14
53 11 87
53 12 69
53 13 41
53 14 44
53 15 27
53 16 67
53 17 100
53 18 89
53 19 106
53 20 111
53 21 43
53 22 69
53 23 50
53 24 32
53 25 85
53 26 90
53 27 45
53 28 11
53 29 24
53 30 96
53 31 86
53 32 62
53 33 59
53 34 93
53 35 84
53 36 120
53 37 31
53 38 71
53 39 91
53 40 44
53 41 17
53 42 3
53 43 10
53 44 118
53 45 39
53 46 60
53 47 21
53 48 112
53 49 68
53 50 45
53 51 72
53 52 36
54 0 81
54 1 55
54 2 82
54 3 19
54 4 70
54 5 92
54 6 110
54 7 87
54 8 71
54 9 111
54 10 22
54 11 98
54 12 62
54 13 76
54 14 34
54 15 75
54 16 75
54 17 14
54 18 27
54 19 36
54 20 98
54 21 68
54 22 28
54 23 8
54 24 28
54 25 101
54 26 66
54 27 80
54 28 41
54 29 3
54 30 54
54 31 56
54 32 31
54 33 71
54 34 118
54 35 58
54 36 77
54 37 38
54 38 49
54 39 25
54 40 83
54 41 17
54 42 42
54 43 109
54 44 101
54 45 68
54 46 17
54 47 101
54 48 40
54 49 50
54 50 98
54 51 68
54 52 82
54 53 120
55 0 96
55 1 29
55 2 90
55 3 111
55 4 25
55 5 81
55 6 1
55 7 24
55 8 41
55 9 42
55 10 4
55 11 44
55 12 92
55 13 113
55 14 57
55 15 84
55 16 120
55 17 102
55 18 117
55 19 105
55 20 104
55 21 93
55 22 90
55 23 59
55 24 105
55 25 57
55 26 114
55 27 50
55 28 26
55 29 21
55 30 97
55 31 110
55 32 37
55 33 27
55 34 35
55 35 99
55 36 115
55 37 119
55 38 102
55 39 57
55 40 54
55 41 20
55 42 40
55 43 116
55 44 36
55 45 104
55 46 31
55 47 3
55 48 56
55 49 29
55 50 110
55 51 72
55 52 6
55 53 63
55 54 18
56 0 103
56 1 7
56 2 73
56 3 76
56 4 36
56 5 73
56 6 91
56 7 5
56 8 18
56 9 74
56 10 112
56 11 57
56 12 14
56 13 115
56 14 91
56 15 2
56 16 46
56 17 70
56 18 37
56 19 30
56 20 36
56 21 8
56 22 16
56 23 10
56 24 11
56 25 68
56 26 14
56 27 46
56 28 86
56 29 32
56 30 32
56 31 3
56 32 62
56 33 75
56 34 51
56 35 64
56 36 49
56 37 14
56 38 50
56 39 44
56 40 83
56 41 32
56 42 47
56 43 60
56 44 92
56 45 18
56 46 8
56 47 111
56 48 41
56 49 77
56 50 32
56 51 7
56 52 104
56 53 18
56 54 9
56 55 54
57 0 35
57 1 61
57 2 33
57 3 2
57 4 57
57 5 44
57 6 9
57 7 98
57 8 82
57 9 35
57 10 20
57 11 20
57 12 17
57 13 20
57 14 82
57 15 42
57 16 69
57 17 114
57 18 80
57 19 68
57 20 2
57 21 76
57 22 109
57 23 77
57 24 65
57 25 1
57 26 61
57 27 78
57 28 84
57 29 82
57 30 45
57 31 70
57 32 65
57 33 37
57 34 60
57 35 78
57 36 102
57 37 10
57 38 100
57 39 101
57 40 92
57 41 111
57 42 4
57 43 103
57 44 107
57 45 111
57 46 47
57 47 63
57 48 98
57 49 105
57 50 86
57 51 30
57 52 39
57 53 13
57 54 6
57 55 40
57 56 106
58 0 111
58 1 50
58 2 108
58 3 30
58 4 26
58 5 120
58 6 111
58 7 21
58 8 26
58 9 52
58 10 88
58 11 60
58 12 49
58 13 21
58 14 84
58 15 41
58 16 2
58 17 8
58 18 19
58 19 109
58 20 83
58 21 71
58 22 96
58 23 35
58 24 23
58 25 43
58 26 116
58 27 31
58 28 30
58 29 116
58 30 76
58 31 101
58 32 112
58 33 22
58 34 11
58 35 39
58 36 18
58 37 8
58 38 56
58 39 98
58 40 16
58 41 62
58 42 86
58 43 75
58 44 5
58 45 44
58 46 79
58 47 4
58 48 1
58 49 9
58 50 23
58 51 30
58 52 36
58 53 54
58 54 106
58 55 76
58 56 47
58 57 16
59 0 36
59 1 46
59 2 15
59 3 86
59 4 6
59 5 48
59 6 32
59 7 85
59 8 38
59 9 114
59 10 14
59 11 94
59 12 25
59 13 44
59 14 120
59 15 105
59 16 55
59 17 108
59 18 94
59 19 30
59 20 10
59 21 49
59 22 92
59 23 64
59 24 15
59 25 78
59 26 65
59 27 23
59 28 79
59 29 22
59 30 85
59 31 28
59 32 59
59 33 24
59 34 72
59 35 105
59 36 50
59 37 113
59 38 30
59 39 62
59 40 109
59 41 35
59 42 47
59 43 40
59 44 65
59 45 98
59 46 23
59 47 29
59 48 78
59 49 42
59 50 111
59 51 15
59 52 101
59 53 109
59 54 114
59 55 58
59 56 64
59 57 55
59 58 66
